(declare-fun var0 () String)
(assert (RegexIn var0 (RegexConcat (RegexStar (RegexUnion (Str2Reg "oo") (Str2Reg "pp"))) (RegexConcat (RegexStar (RegexPlus (Str2Reg "nnn"))) (RegexConcat (RegexPlus (RegexPlus (Str2Reg "mm"))) (RegexConcat (RegexUnion (RegexPlus (Str2Reg "jj")) (RegexUnion (Str2Reg "k") (Str2Reg "ll"))) (RegexConcat (RegexPlus (RegexStar (Str2Reg "ii"))) (RegexConcat (RegexUnion (RegexUnion (Str2Reg "ff") (Str2Reg "ggg")) (RegexStar (Str2Reg "h"))) (RegexConcat (RegexStar (RegexStar (Str2Reg "ee"))) (RegexConcat (RegexUnion (RegexPlus (Str2Reg "c")) (RegexPlus (Str2Reg "d"))) (RegexConcat (RegexUnion (RegexPlus (Str2Reg "aaa")) (RegexPlus (Str2Reg "b"))) (RegexConcat (RegexStar (RegexStar (Str2Reg "99"))) (RegexConcat (RegexPlus (RegexUnion (Str2Reg "777") (Str2Reg "88"))) (RegexConcat (RegexPlus (RegexPlus (Str2Reg "66"))) (RegexConcat (RegexUnion (RegexPlus (Str2Reg "33")) (RegexUnion (Str2Reg "444") (Str2Reg "555"))) (RegexConcat (RegexStar (RegexUnion (Str2Reg "11") (Str2Reg "222"))) (RegexConcat (RegexPlus (RegexUnion (Str2Reg "~~") (Str2Reg "0"))) (RegexConcat (RegexStar (RegexPlus (Str2Reg "}"))) (RegexConcat (RegexUnion (RegexUnion (Str2Reg "``") (Str2Reg "{{{")) (RegexPlus (Str2Reg "|||"))) (RegexConcat (RegexPlus (RegexUnion (Str2Reg "^^^") (Str2Reg "___"))) (RegexConcat (RegexUnion (RegexPlus (Str2Reg "\\")) (RegexStar (Str2Reg "]]]"))) (RegexConcat (RegexStar (RegexStar (Str2Reg "[["))) (RegexConcat (RegexPlus (RegexStar (Str2Reg "@@@"))) (RegexConcat (RegexUnion (RegexPlus (Str2Reg ">>")) (RegexStar (Str2Reg "?"))) (RegexConcat (RegexUnion (RegexPlus (Str2Reg "<<")) (RegexStar (Str2Reg "==="))) (RegexConcat (RegexStar (RegexPlus (Str2Reg ";;;"))) (RegexConcat (RegexStar (RegexStar (Str2Reg ":"))) (RegexConcat (RegexStar (RegexPlus (Str2Reg "///"))) (RegexConcat (RegexPlus (RegexStar (Str2Reg "..."))) (RegexConcat (RegexStar (RegexStar (Str2Reg "-"))) (RegexConcat (RegexPlus (RegexUnion (Str2Reg "+") (Str2Reg ",,"))) (RegexConcat (RegexStar (RegexStar (Str2Reg "**"))) (RegexConcat (RegexPlus (RegexUnion (Str2Reg "(((") (Str2Reg "))"))) (RegexConcat (RegexUnion (RegexUnion (Str2Reg "%%%") (Str2Reg "&")) (RegexPlus (Str2Reg "'"))) (RegexConcat (RegexStar (RegexUnion (Str2Reg "##") (Str2Reg "$$"))) (RegexConcat (RegexUnion (RegexStar (Str2Reg "!!!")) (RegexPlus (Str2Reg "\""))) (RegexConcat (RegexStar (RegexStar (Str2Reg "Z"))) (RegexConcat (RegexPlus (RegexUnion (Str2Reg "XXX") (Str2Reg "Y"))) (RegexConcat (RegexUnion (RegexUnion (Str2Reg "UU") (Str2Reg "VVV")) (RegexPlus (Str2Reg "W"))) (RegexConcat (RegexStar (RegexStar (Str2Reg "TT"))) (RegexConcat (RegexStar (RegexStar (Str2Reg "SSS"))) (RegexConcat (RegexPlus (RegexPlus (Str2Reg "RRR"))) (RegexConcat (RegexPlus (RegexStar (Str2Reg "QQ"))) (RegexConcat (RegexUnion (RegexStar (Str2Reg "O")) (RegexPlus (Str2Reg "P"))) (RegexConcat (RegexPlus (RegexStar (Str2Reg "NNN"))) (RegexConcat (RegexPlus (RegexStar (Str2Reg "M"))) (RegexConcat (RegexPlus (RegexUnion (Str2Reg "KK") (Str2Reg "LL"))) (RegexConcat (RegexPlus (RegexUnion (Str2Reg "II") (Str2Reg "JJ"))) (RegexConcat (RegexUnion (RegexUnion (Str2Reg "E") (Str2Reg "FFF")) (RegexUnion (Str2Reg "G") (Str2Reg "HH"))) (RegexConcat (RegexPlus (RegexPlus (Str2Reg "D"))) (RegexConcat (RegexPlus (RegexUnion (Str2Reg "BB") (Str2Reg "CCC"))) (RegexConcat (RegexStar (RegexUnion (Str2Reg "zzz") (Str2Reg "A"))) (RegexConcat (RegexPlus (RegexStar (Str2Reg "y"))) (RegexConcat (RegexStar (RegexUnion (Str2Reg "www") (Str2Reg "xx"))) (RegexConcat (RegexStar (RegexPlus (Str2Reg "vv"))) (RegexConcat (RegexUnion (RegexStar (Str2Reg "tt")) (RegexStar (Str2Reg "uuu"))) (RegexConcat (RegexStar (RegexUnion (Str2Reg "rr") (Str2Reg "ss"))) (RegexConcat (RegexStar (RegexUnion (Str2Reg "ppp") (Str2Reg "qqq"))) (RegexConcat (RegexStar (RegexUnion (Str2Reg "nn") (Str2Reg "oo"))) (RegexConcat (RegexPlus (RegexUnion (Str2Reg "lll") (Str2Reg "mmm"))) (RegexConcat (RegexUnion (RegexStar (Str2Reg "jjj")) (RegexStar (Str2Reg "k"))) (RegexConcat (RegexPlus (RegexPlus (Str2Reg "iii"))) (RegexConcat (RegexPlus (RegexPlus (Str2Reg "hhh"))) (RegexConcat (RegexPlus (RegexPlus (Str2Reg "g"))) (RegexConcat (RegexUnion (RegexUnion (Str2Reg "ddd") (Str2Reg "eee")) (RegexStar (Str2Reg "fff"))) (RegexConcat (RegexStar (RegexPlus (Str2Reg "cc"))) (RegexConcat (RegexUnion (RegexPlus (Str2Reg "aaa")) (RegexStar (Str2Reg "bbb"))) (RegexConcat (RegexUnion (RegexUnion (Str2Reg "66") (Str2Reg "77")) (RegexUnion (Str2Reg "88") (Str2Reg "9"))) (RegexConcat (RegexPlus (RegexUnion (Str2Reg "4") (Str2Reg "5"))) (RegexConcat (RegexStar (RegexStar (Str2Reg "3"))) (RegexConcat (RegexStar (RegexPlus (Str2Reg "22"))) (RegexConcat (RegexStar (RegexStar (Str2Reg "11"))) (RegexPlus (RegexStar (Str2Reg "00")))))))))))))))))))))))))))))))))))))))))))))))))))))))))))))))))))))))))))
(assert (not (RegexIn var0 (RegexConcat (RegexStar (RegexUnion (Str2Reg "m") (Str2Reg "n"))) (RegexConcat (RegexPlus (RegexStar (Str2Reg "ll"))) (RegexConcat (RegexPlus (RegexPlus (Str2Reg "k"))) (RegexConcat (RegexPlus (RegexUnion (Str2Reg "iii") (Str2Reg "jjj"))) (RegexConcat (RegexPlus (RegexStar (Str2Reg "hh"))) (RegexConcat (RegexPlus (RegexStar (Str2Reg "gg"))) (RegexConcat (RegexPlus (RegexStar (Str2Reg "f"))) (RegexConcat (RegexPlus (RegexUnion (Str2Reg "dd") (Str2Reg "eee"))) (RegexConcat (RegexUnion (RegexStar (Str2Reg "b")) (RegexStar (Str2Reg "ccc"))) (RegexConcat (RegexStar (RegexPlus (Str2Reg "aaa"))) (RegexConcat (RegexStar (RegexStar (Str2Reg "99"))) (RegexConcat (RegexUnion (RegexPlus (Str2Reg "6")) (RegexUnion (Str2Reg "7") (Str2Reg "888"))) (RegexConcat (RegexUnion (RegexPlus (Str2Reg "444")) (RegexPlus (Str2Reg "555"))) (RegexConcat (RegexPlus (RegexPlus (Str2Reg "3"))) (RegexConcat (RegexStar (RegexStar (Str2Reg "22"))) (RegexConcat (RegexStar (RegexStar (Str2Reg "111"))) (RegexConcat (RegexUnion (RegexStar (Str2Reg "}")) (RegexUnion (Str2Reg "~~~") (Str2Reg "00"))) (RegexConcat (RegexPlus (RegexUnion (Str2Reg "{{") (Str2Reg "|||"))) (RegexConcat (RegexStar (RegexStar (Str2Reg "```"))) (RegexConcat (RegexStar (RegexPlus (Str2Reg "_"))) (RegexConcat (RegexPlus (RegexUnion (Str2Reg "]") (Str2Reg "^^^"))) (RegexConcat (RegexStar (RegexPlus (Str2Reg "\\"))) (RegexConcat (RegexStar (RegexPlus (Str2Reg "[[["))) (RegexConcat (RegexPlus (RegexStar (Str2Reg "@"))) (RegexConcat (RegexPlus (RegexStar (Str2Reg "???"))) (RegexConcat (RegexUnion (RegexPlus (Str2Reg "==")) (RegexStar (Str2Reg ">>"))) (RegexConcat (RegexPlus (RegexStar (Str2Reg "<<<"))) (RegexConcat (RegexUnion (RegexStar (Str2Reg "::")) (RegexPlus (Str2Reg ";;"))) (RegexConcat (RegexStar (RegexPlus (Str2Reg "///"))) (RegexConcat (RegexPlus (RegexPlus (Str2Reg "..."))) (RegexConcat (RegexStar (RegexPlus (Str2Reg "-"))) (RegexConcat (RegexUnion (RegexPlus (Str2Reg "*")) (RegexUnion (Str2Reg "++") (Str2Reg ",,"))) (RegexConcat (RegexStar (RegexUnion (Str2Reg "(") (Str2Reg ")))"))) (RegexConcat (RegexStar (RegexStar (Str2Reg "'''"))) (RegexConcat (RegexPlus (RegexUnion (Str2Reg "%%%") (Str2Reg "&&&"))) (RegexConcat (RegexPlus (RegexPlus (Str2Reg "$$"))) (RegexConcat (RegexStar (RegexStar (Str2Reg "##"))) (RegexConcat (RegexStar (RegexStar (Str2Reg "\"\"\""))) (RegexConcat (RegexStar (RegexUnion (Str2Reg "Z") (Str2Reg "!!"))) (RegexConcat (RegexStar (RegexUnion (Str2Reg "XX") (Str2Reg "YY"))) (RegexConcat (RegexPlus (RegexUnion (Str2Reg "VVV") (Str2Reg "W"))) (RegexConcat (RegexPlus (RegexStar (Str2Reg "UUU"))) (RegexConcat (RegexUnion (RegexUnion (Str2Reg "QQ") (Str2Reg "RR")) (RegexUnion (Str2Reg "S") (Str2Reg "T"))) (RegexConcat (RegexUnion (RegexPlus (Str2Reg "OOO")) (RegexStar (Str2Reg "PP"))) (RegexConcat (RegexUnion (RegexPlus (Str2Reg "MMM")) (RegexPlus (Str2Reg "NN"))) (RegexConcat (RegexPlus (RegexStar (Str2Reg "L"))) (RegexConcat (RegexPlus (RegexStar (Str2Reg "KK"))) (RegexConcat (RegexPlus (RegexPlus (Str2Reg "J"))) (RegexConcat (RegexStar (RegexUnion (Str2Reg "HH") (Str2Reg "I"))) (RegexConcat (RegexPlus (RegexStar (Str2Reg "GGG"))) (RegexConcat (RegexUnion (RegexUnion (Str2Reg "CC") (Str2Reg "DD")) (RegexUnion (Str2Reg "EEE") (Str2Reg "FFF"))) (RegexConcat (RegexPlus (RegexUnion (Str2Reg "AAA") (Str2Reg "B"))) (RegexConcat (RegexUnion (RegexStar (Str2Reg "yyy")) (RegexPlus (Str2Reg "zzz"))) (RegexConcat (RegexPlus (RegexStar (Str2Reg "x"))) (RegexConcat (RegexStar (RegexPlus (Str2Reg "w"))) (RegexConcat (RegexStar (RegexPlus (Str2Reg "vv"))) (RegexConcat (RegexUnion (RegexStar (Str2Reg "sss")) (RegexUnion (Str2Reg "ttt") (Str2Reg "uu"))) (RegexConcat (RegexUnion (RegexUnion (Str2Reg "ppp") (Str2Reg "qq")) (RegexPlus (Str2Reg "r"))) (RegexConcat (RegexUnion (RegexStar (Str2Reg "nn")) (RegexStar (Str2Reg "ooo"))) (RegexConcat (RegexUnion (RegexPlus (Str2Reg "kkk")) (RegexUnion (Str2Reg "l") (Str2Reg "m"))) (RegexConcat (RegexUnion (RegexStar (Str2Reg "i")) (RegexStar (Str2Reg "jjj"))) (RegexConcat (RegexPlus (RegexUnion (Str2Reg "g") (Str2Reg "h"))) (RegexConcat (RegexUnion (RegexStar (Str2Reg "ddd")) (RegexUnion (Str2Reg "ee") (Str2Reg "f"))) (RegexConcat (RegexStar (RegexStar (Str2Reg "cc"))) (RegexConcat (RegexStar (RegexUnion (Str2Reg "a") (Str2Reg "bb"))) (RegexConcat (RegexPlus (RegexPlus (Str2Reg "9"))) (RegexConcat (RegexPlus (RegexPlus (Str2Reg "88"))) (RegexConcat (RegexUnion (RegexUnion (Str2Reg "4") (Str2Reg "555")) (RegexUnion (Str2Reg "6") (Str2Reg "7"))) (RegexConcat (RegexStar (RegexStar (Str2Reg "333"))) (RegexConcat (RegexUnion (RegexPlus (Str2Reg "111")) (RegexStar (Str2Reg "222"))) (RegexStar (RegexStar (Str2Reg "0"))))))))))))))))))))))))))))))))))))))))))))))))))))))))))))))))))))))))))))
(check-sat)